data/lp_files/q3/27_8.lp
\ Model foo
\ LP format - for model browsing. Use MPS format to capture full model detail.
Minimize
  z
Subject To
 allocateEach[1]: x[1,1] + x[2,1] = 1
 allocateEach[2]: x[1,2] + x[2,2] = 1
 allocateEach[3]: x[1,3] + x[2,3] = 1
 allocateEach[4]: x[1,4] + x[2,4] = 1
 allocateEach[5]: x[1,5] + x[2,5] = 1
 allocateEach[6]: x[1,6] + x[2,6] = 1
 allocateEach[7]: x[1,7] + x[2,7] = 1
 allocateAllCash: cashProportion[1] + cashProportion[2] = 1
 findWorstP[1,2]: z + 0.1565710930619435 cashProportion[1]
   - 0.1565710930619435 cashProportion[2] + 0.0819845386045601 x[1,1]
   + 0.0784812603972992 x[1,2] + 0.1159800371856346 x[1,3]
   + 0.1313631470789706 x[1,4] + 0.1028476367550641 x[1,5]
   + 0.1679029259223016 x[1,6] + 0.1648693609942265 x[1,7]
   - 0.0819845386045601 x[2,1] - 0.0784812603972992 x[2,2]
   - 0.1159800371856346 x[2,3] - 0.1313631470789706 x[2,4]
   - 0.1028476367550641 x[2,5] - 0.1679029259223016 x[2,6]
   - 0.1648693609942265 x[2,7] >= 0
 findWorstP[2,1]: z - 0.1919754271453254 cashProportion[1]
   + 0.1919754271453254 cashProportion[2] - 0.2002543674409676 x[1,1]
   - 0.1241121136494529 x[1,2] - 0.1119456709541179 x[1,3]
   - 0.1015789978882703 x[1,4] - 0.0383470915722787 x[1,5]
   - 0.0468180072950662 x[1,6] - 0.184968324054521 x[1,7]
   + 0.2002543674409676 x[2,1] + 0.1241121136494529 x[2,2]
   + 0.1119456709541179 x[2,3] + 0.1015789978882703 x[2,4]
   + 0.0383470915722787 x[2,5] + 0.0468180072950662 x[2,6]
   + 0.184968324054521 x[2,7] >= 0
Bounds
 z <= 1
 -infinity <= cashProportion[1] <= 1
 -infinity <= cashProportion[2] <= 1
Binaries
 x[1,1] x[1,2] x[1,3] x[1,4] x[1,5] x[1,6] x[1,7] x[2,1] x[2,2] x[2,3]
 x[2,4] x[2,5] x[2,6] x[2,7]
End
