data/mps_files/q3/27_8.mps
NAME foo
ROWS
 N  OBJ
 E  allocateEach[1]
 E  allocateEach[2]
 E  allocateEach[3]
 E  allocateEach[4]
 E  allocateEach[5]
 E  allocateEach[6]
 E  allocateEach[7]
 E  allocateAllCash
 G  findWorstP[1,2]
 G  findWorstP[2,1]
COLUMNS
    z         OBJ       1
    z         findWorstP[1,2]  1
    z         findWorstP[2,1]  1
    cashProportion[1]  allocateAllCash  1
    cashProportion[1]  findWorstP[1,2]  1.5657109306194347e-01
    cashProportion[1]  findWorstP[2,1]  -1.9197542714532542e-01
    cashProportion[2]  allocateAllCash  1
    cashProportion[2]  findWorstP[1,2]  -1.5657109306194347e-01
    cashProportion[2]  findWorstP[2,1]  1.9197542714532542e-01
    MARKER    'MARKER'                 'INTORG'
    x[1,1]    allocateEach[1]  1
    x[1,1]    findWorstP[1,2]  8.1984538604560148e-02
    x[1,1]    findWorstP[2,1]  -2.0025436744096756e-01
    x[1,2]    allocateEach[2]  1
    x[1,2]    findWorstP[1,2]  7.8481260397299163e-02
    x[1,2]    findWorstP[2,1]  -1.2411211364945286e-01
    x[1,3]    allocateEach[3]  1
    x[1,3]    findWorstP[1,2]  1.1598003718563461e-01
    x[1,3]    findWorstP[2,1]  -1.1194567095411787e-01
    x[1,4]    allocateEach[4]  1
    x[1,4]    findWorstP[1,2]  1.3136314707897057e-01
    x[1,4]    findWorstP[2,1]  -1.0157899788827029e-01
    x[1,5]    allocateEach[5]  1
    x[1,5]    findWorstP[1,2]  1.0284763675506410e-01
    x[1,5]    findWorstP[2,1]  -3.8347091572278745e-02
    x[1,6]    allocateEach[6]  1
    x[1,6]    findWorstP[1,2]  1.6790292592230160e-01
    x[1,6]    findWorstP[2,1]  -4.6818007295066230e-02
    x[1,7]    allocateEach[7]  1
    x[1,7]    findWorstP[1,2]  1.6486936099422647e-01
    x[1,7]    findWorstP[2,1]  -1.8496832405452102e-01
    x[2,1]    allocateEach[1]  1
    x[2,1]    findWorstP[1,2]  -8.1984538604560148e-02
    x[2,1]    findWorstP[2,1]  2.0025436744096756e-01
    x[2,2]    allocateEach[2]  1
    x[2,2]    findWorstP[1,2]  -7.8481260397299163e-02
    x[2,2]    findWorstP[2,1]  1.2411211364945286e-01
    x[2,3]    allocateEach[3]  1
    x[2,3]    findWorstP[1,2]  -1.1598003718563461e-01
    x[2,3]    findWorstP[2,1]  1.1194567095411787e-01
    x[2,4]    allocateEach[4]  1
    x[2,4]    findWorstP[1,2]  -1.3136314707897057e-01
    x[2,4]    findWorstP[2,1]  1.0157899788827029e-01
    x[2,5]    allocateEach[5]  1
    x[2,5]    findWorstP[1,2]  -1.0284763675506410e-01
    x[2,5]    findWorstP[2,1]  3.8347091572278745e-02
    x[2,6]    allocateEach[6]  1
    x[2,6]    findWorstP[1,2]  -1.6790292592230160e-01
    x[2,6]    findWorstP[2,1]  4.6818007295066230e-02
    x[2,7]    allocateEach[7]  1
    x[2,7]    findWorstP[1,2]  -1.6486936099422647e-01
    x[2,7]    findWorstP[2,1]  1.8496832405452102e-01
    MARKER    'MARKER'                 'INTEND'
RHS
    RHS1      allocateEach[1]  1
    RHS1      allocateEach[2]  1
    RHS1      allocateEach[3]  1
    RHS1      allocateEach[4]  1
    RHS1      allocateEach[5]  1
    RHS1      allocateEach[6]  1
    RHS1      allocateEach[7]  1
    RHS1      allocateAllCash  1
BOUNDS
 UP BND1      z         1
 MI BND1      cashProportion[1]
 UP BND1      cashProportion[1]  1
 MI BND1      cashProportion[2]
 UP BND1      cashProportion[2]  1
 BV BND1      x[1,1]  
 BV BND1      x[1,2]  
 BV BND1      x[1,3]  
 BV BND1      x[1,4]  
 BV BND1      x[1,5]  
 BV BND1      x[1,6]  
 BV BND1      x[1,7]  
 BV BND1      x[2,1]  
 BV BND1      x[2,2]  
 BV BND1      x[2,3]  
 BV BND1      x[2,4]  
 BV BND1      x[2,5]  
 BV BND1      x[2,6]  
 BV BND1      x[2,7]  
ENDATA
